n = 7;
r = 1;

/*

     2 -- 3
   /  \  / \
  1    5    6
   \  /  \ /
    4 -- 7

*/

graph = [| 0, 1, 0, 1, 0, 0, 0         
         | 1, 0, 1, 1, 1, 0, 0         
         | 0, 1, 0, 0, 1, 1, 1         
         | 1, 1, 0, 0, 1, 0, 1         
         | 0, 1, 1, 1, 0, 0, 1         
         | 0, 0, 1, 0, 0, 0, 1         
         | 0, 0, 1, 1, 1, 1, 0 |];
